; generated by Theta
; https://github.com/ftsrg/theta/

(set-logic HORN)

; declarations
(declare-fun main_init_0 ((_ FloatingPoint 11 53) (_ FloatingPoint 11 53) (_ FloatingPoint 11 53) (_ BitVec 32)) Bool)
(declare-fun main_final_2 ((_ FloatingPoint 11 53) (_ FloatingPoint 11 53) (_ FloatingPoint 11 53) (_ BitVec 32)) Bool)
(declare-fun __loc_49_4 ((_ FloatingPoint 11 53) (_ FloatingPoint 11 53) (_ FloatingPoint 11 53) (_ BitVec 32)) Bool)
(declare-fun __loc_52_5 ((_ FloatingPoint 11 53) (_ FloatingPoint 11 53) (_ FloatingPoint 11 53) (_ BitVec 32)) Bool)
(declare-fun __loc_69_3 ((_ FloatingPoint 11 53) (_ FloatingPoint 11 53) (_ FloatingPoint 11 53) (_ BitVec 32)) Bool)
(declare-fun __loc_82_1 ((_ FloatingPoint 11 53) (_ FloatingPoint 11 53) (_ FloatingPoint 11 53) (_ BitVec 32)) Bool)
(declare-fun main_error_6 ((_ FloatingPoint 11 53) (_ FloatingPoint 11 53) (_ FloatingPoint 11 53) (_ BitVec 32)) Bool)

; facts, rules, queries
(assert (forall ((|call_sin_ret0| (_ FloatingPoint 11 53)) (|main::f| (_ FloatingPoint 11 53)) (|main::fStep| (_ FloatingPoint 11 53)) (|main::n| (_ BitVec 32))) (=> true (main_init_0 |call_sin_ret0| |main::f| |main::fStep| |main::n|))))
(assert (forall ((|call_sin_ret0| (_ FloatingPoint 11 53)) (|main::f| (_ FloatingPoint 11 53)) (|main::fStep| (_ FloatingPoint 11 53)) (|main::n| (_ BitVec 32))) (=> (and (__loc_82_1 |call_sin_ret0| |main::f| |main::fStep| |main::n|) (bvslt |main::n| #b00000000000000000000000000001011)) (main_final_2 |call_sin_ret0| |main::f| |main::fStep| |main::n|))))
(assert (forall ((|call_sin_ret0| (_ FloatingPoint 11 53)) (|main::f| (_ FloatingPoint 11 53)) (|main::fStep| (_ FloatingPoint 11 53)) (|main::n| (_ BitVec 32))) (=> (and (__loc_69_3 |call_sin_ret0| |main::f| |main::fStep| |main::n|) (fp.lt |main::f| (fp #b0  #b10000000000 #b1001001000011111101101010100010001000010110100011000))) (__loc_49_4 |call_sin_ret0| |main::f| |main::fStep| |main::n|))))
(assert (forall ((|call_sin_ret0| (_ FloatingPoint 11 53)) (|main::f_new| (_ FloatingPoint 11 53)) (|main::fStep_new| (_ FloatingPoint 11 53)) (|main::n_new| (_ BitVec 32)) (|main::f| (_ FloatingPoint 11 53)) (|main::fStep| (_ FloatingPoint 11 53)) (|main::n| (_ BitVec 32))) (=> (and (main_init_0 |call_sin_ret0| |main::f| |main::fStep| |main::n|) (and (and (= |main::f_new| (fp #b0  #b00000000000 #b0000000000000000000000000000000000000000000000000000)) (= |main::fStep_new| (fp.mul RNE (fp #b0  #b01111111011 #b1001100110011001100110011001100110011001100110011010) (fp #b0  #b10000000000 #b1001001000011111101101010100010001000010110100011000)))) (= |main::n_new| #b00000000000000000000000000000000))) (__loc_49_4 |call_sin_ret0| |main::f_new| |main::fStep_new| |main::n_new|))))
(assert (forall ((|call_sin_ret0| (_ FloatingPoint 11 53)) (|main::f| (_ FloatingPoint 11 53)) (|main::fStep| (_ FloatingPoint 11 53)) (|main::n| (_ BitVec 32))) (=> (and (__loc_49_4 |call_sin_ret0| |main::f| |main::fStep| |main::n|) true) (__loc_52_5 |call_sin_ret0| |main::f| |main::fStep| |main::n|))))
(assert (forall ((|call_sin_ret0| (_ FloatingPoint 11 53)) (|main::f_new| (_ FloatingPoint 11 53)) (|main::fStep| (_ FloatingPoint 11 53)) (|main::n_new| (_ BitVec 32)) (|main::f| (_ FloatingPoint 11 53)) (|main::n| (_ BitVec 32))) (=> (and (__loc_52_5 |call_sin_ret0| |main::f| |main::fStep| |main::n|) (and (= |main::f_new| (fp.add RNE |main::f| |main::fStep|)) (= |main::n_new| (bvadd |main::n| #b00000000000000000000000000000001)))) (__loc_69_3 |call_sin_ret0| |main::f_new| |main::fStep| |main::n_new|))))
(assert (forall ((|call_sin_ret0| (_ FloatingPoint 11 53)) (|main::f| (_ FloatingPoint 11 53)) (|main::fStep| (_ FloatingPoint 11 53)) (|main::n| (_ BitVec 32))) (=> (and (__loc_69_3 |call_sin_ret0| |main::f| |main::fStep| |main::n|) (not (fp.lt |main::f| (fp #b0  #b10000000000 #b1001001000011111101101010100010001000010110100011000)))) (__loc_82_1 |call_sin_ret0| |main::f| |main::fStep| |main::n|))))
(assert (forall ((|call_sin_ret0| (_ FloatingPoint 11 53)) (|main::f| (_ FloatingPoint 11 53)) (|main::fStep| (_ FloatingPoint 11 53)) (|main::n| (_ BitVec 32))) (=> (and (__loc_82_1 |call_sin_ret0| |main::f| |main::fStep| |main::n|) (not (bvslt |main::n| #b00000000000000000000000000001011))) (main_error_6 |call_sin_ret0| |main::f| |main::fStep| |main::n|))))
(assert (forall ((|call_sin_ret0| (_ FloatingPoint 11 53)) (|main::f| (_ FloatingPoint 11 53)) (|main::fStep| (_ FloatingPoint 11 53)) (|main::n| (_ BitVec 32))) (=> (main_error_6 |call_sin_ret0| |main::f| |main::fStep| |main::n|) false)))

(check-sat)
(exit)